p cnf 11 25
-8 0
8 -3 -10 -5 -2 0
2 5 0
-10 10 -4 7 0
9 0
-8 11 -3 -5 2 -8 0
-5 -2 2 -9 -11 2 8 -11 -4 0
9 -1 0
9 -11 1 10 -11 0
-7 -2 -7 -8 -6 9 -11 -7 -6 0
5 -4 8 11 0
1 7 7 4 2 10 0
-3 -2 0
-2 -7 0
-2 6 -6 -4 5 7 -7 1 0
-4 4 -8 9 8 0
-4 -2 0
4 -5 -2 3 -2 -3 0
-7 7 0
-6 -4 6 -1 -2 2 3 8 3 5 0
-9 9 6 -6 -6 1 9 -5 10 8 0
6 0
10 -1 -9 1 -7 -6 5 -4 10 2 0
6 6 0
-10 0